c description: Tseitin formula on , with even charge
c generator: CNFgen (0.9.0)
c copyright: (C) 2012-2020 Massimo Lauria <massimo.lauria@uniroma1.it>
c url: https://massimolauria.net/cnfgen
c
p cnf 30 424
1 2 3 4 5 -6 0
1 2 3 4 -5 6 0
1 2 3 -4 5 6 0
1 2 3 -4 -5 -6 0
1 2 -3 4 5 6 0
1 2 -3 4 -5 -6 0
1 2 -3 -4 5 -6 0
1 2 -3 -4 -5 6 0
1 -2 3 4 5 6 0
1 -2 3 4 -5 -6 0
1 -2 3 -4 5 -6 0
1 -2 3 -4 -5 6 0
1 -2 -3 4 5 -6 0
1 -2 -3 4 -5 6 0
1 -2 -3 -4 5 6 0
1 -2 -3 -4 -5 -6 0
-1 2 3 4 5 6 0
-1 2 3 4 -5 -6 0
-1 2 3 -4 5 -6 0
-1 2 3 -4 -5 6 0
-1 2 -3 4 5 -6 0
-1 2 -3 4 -5 6 0
-1 2 -3 -4 5 6 0
-1 2 -3 -4 -5 -6 0
-1 -2 3 4 5 -6 0
-1 -2 3 4 -5 6 0
-1 -2 3 -4 5 6 0
-1 -2 3 -4 -5 -6 0
-1 -2 -3 4 5 6 0
-1 -2 -3 4 -5 -6 0
-1 -2 -3 -4 5 -6 0
-1 -2 -3 -4 -5 6 0
7 8 9 10 -11 0
7 8 9 -10 11 0
7 8 -9 10 11 0
7 8 -9 -10 -11 0
7 -8 9 10 11 0
7 -8 9 -10 -11 0
7 -8 -9 10 -11 0
7 -8 -9 -10 11 0
-7 8 9 10 11 0
-7 8 9 -10 -11 0
-7 8 -9 10 -11 0
-7 8 -9 -10 11 0
-7 -8 9 10 -11 0
-7 -8 9 -10 11 0
-7 -8 -9 10 11 0
-7 -8 -9 -10 -11 0
12 13 14 15 16 -17 0
12 13 14 15 -16 17 0
12 13 14 -15 16 17 0
12 13 14 -15 -16 -17 0
12 13 -14 15 16 17 0
12 13 -14 15 -16 -17 0
12 13 -14 -15 16 -17 0
12 13 -14 -15 -16 17 0
12 -13 14 15 16 17 0
12 -13 14 15 -16 -17 0
12 -13 14 -15 16 -17 0
12 -13 14 -15 -16 17 0
12 -13 -14 15 16 -17 0
12 -13 -14 15 -16 17 0
12 -13 -14 -15 16 17 0
12 -13 -14 -15 -16 -17 0
-12 13 14 15 16 17 0
-12 13 14 15 -16 -17 0
-12 13 14 -15 16 -17 0
-12 13 14 -15 -16 17 0
-12 13 -14 15 16 -17 0
-12 13 -14 15 -16 17 0
-12 13 -14 -15 16 17 0
-12 13 -14 -15 -16 -17 0
-12 -13 14 15 16 -17 0
-12 -13 14 15 -16 17 0
-12 -13 14 -15 16 17 0
-12 -13 14 -15 -16 -17 0
-12 -13 -14 15 16 17 0
-12 -13 -14 15 -16 -17 0
-12 -13 -14 -15 16 -17 0
-12 -13 -14 -15 -16 17 0
1 7 12 18 19 -20 0
1 7 12 18 -19 20 0
1 7 12 -18 19 20 0
1 7 12 -18 -19 -20 0
1 7 -12 18 19 20 0
1 7 -12 18 -19 -20 0
1 7 -12 -18 19 -20 0
1 7 -12 -18 -19 20 0
1 -7 12 18 19 20 0
1 -7 12 18 -19 -20 0
1 -7 12 -18 19 -20 0
1 -7 12 -18 -19 20 0
1 -7 -12 18 19 -20 0
1 -7 -12 18 -19 20 0
1 -7 -12 -18 19 20 0
1 -7 -12 -18 -19 -20 0
-1 7 12 18 19 20 0
-1 7 12 18 -19 -20 0
-1 7 12 -18 19 -20 0
-1 7 12 -18 -19 20 0
-1 7 -12 18 19 -20 0
-1 7 -12 18 -19 20 0
-1 7 -12 -18 19 20 0
-1 7 -12 -18 -19 -20 0
-1 -7 12 18 19 -20 0
-1 -7 12 18 -19 20 0
-1 -7 12 -18 19 20 0
-1 -7 12 -18 -19 -20 0
-1 -7 -12 18 19 20 0
-1 -7 -12 18 -19 -20 0
-1 -7 -12 -18 19 -20 0
-1 -7 -12 -18 -19 20 0
2 8 13 18 21 22 23 -24 0
2 8 13 18 21 22 -23 24 0
2 8 13 18 21 -22 23 24 0
2 8 13 18 21 -22 -23 -24 0
2 8 13 18 -21 22 23 24 0
2 8 13 18 -21 22 -23 -24 0
2 8 13 18 -21 -22 23 -24 0
2 8 13 18 -21 -22 -23 24 0
2 8 13 -18 21 22 23 24 0
2 8 13 -18 21 22 -23 -24 0
2 8 13 -18 21 -22 23 -24 0
2 8 13 -18 21 -22 -23 24 0
2 8 13 -18 -21 22 23 -24 0
2 8 13 -18 -21 22 -23 24 0
2 8 13 -18 -21 -22 23 24 0
2 8 13 -18 -21 -22 -23 -24 0
2 8 -13 18 21 22 23 24 0
2 8 -13 18 21 22 -23 -24 0
2 8 -13 18 21 -22 23 -24 0
2 8 -13 18 21 -22 -23 24 0
2 8 -13 18 -21 22 23 -24 0
2 8 -13 18 -21 22 -23 24 0
2 8 -13 18 -21 -22 23 24 0
2 8 -13 18 -21 -22 -23 -24 0
2 8 -13 -18 21 22 23 -24 0
2 8 -13 -18 21 22 -23 24 0
2 8 -13 -18 21 -22 23 24 0
2 8 -13 -18 21 -22 -23 -24 0
2 8 -13 -18 -21 22 23 24 0
2 8 -13 -18 -21 22 -23 -24 0
2 8 -13 -18 -21 -22 23 -24 0
2 8 -13 -18 -21 -22 -23 24 0
2 -8 13 18 21 22 23 24 0
2 -8 13 18 21 22 -23 -24 0
2 -8 13 18 21 -22 23 -24 0
2 -8 13 18 21 -22 -23 24 0
2 -8 13 18 -21 22 23 -24 0
2 -8 13 18 -21 22 -23 24 0
2 -8 13 18 -21 -22 23 24 0
2 -8 13 18 -21 -22 -23 -24 0
2 -8 13 -18 21 22 23 -24 0
2 -8 13 -18 21 22 -23 24 0
2 -8 13 -18 21 -22 23 24 0
2 -8 13 -18 21 -22 -23 -24 0
2 -8 13 -18 -21 22 23 24 0
2 -8 13 -18 -21 22 -23 -24 0
2 -8 13 -18 -21 -22 23 -24 0
2 -8 13 -18 -21 -22 -23 24 0
2 -8 -13 18 21 22 23 -24 0
2 -8 -13 18 21 22 -23 24 0
2 -8 -13 18 21 -22 23 24 0
2 -8 -13 18 21 -22 -23 -24 0
2 -8 -13 18 -21 22 23 24 0
2 -8 -13 18 -21 22 -23 -24 0
2 -8 -13 18 -21 -22 23 -24 0
2 -8 -13 18 -21 -22 -23 24 0
2 -8 -13 -18 21 22 23 24 0
2 -8 -13 -18 21 22 -23 -24 0
2 -8 -13 -18 21 -22 23 -24 0
2 -8 -13 -18 21 -22 -23 24 0
2 -8 -13 -18 -21 22 23 -24 0
2 -8 -13 -18 -21 22 -23 24 0
2 -8 -13 -18 -21 -22 23 24 0
2 -8 -13 -18 -21 -22 -23 -24 0
-2 8 13 18 21 22 23 24 0
-2 8 13 18 21 22 -23 -24 0
-2 8 13 18 21 -22 23 -24 0
-2 8 13 18 21 -22 -23 24 0
-2 8 13 18 -21 22 23 -24 0
-2 8 13 18 -21 22 -23 24 0
-2 8 13 18 -21 -22 23 24 0
-2 8 13 18 -21 -22 -23 -24 0
-2 8 13 -18 21 22 23 -24 0
-2 8 13 -18 21 22 -23 24 0
-2 8 13 -18 21 -22 23 24 0
-2 8 13 -18 21 -22 -23 -24 0
-2 8 13 -18 -21 22 23 24 0
-2 8 13 -18 -21 22 -23 -24 0
-2 8 13 -18 -21 -22 23 -24 0
-2 8 13 -18 -21 -22 -23 24 0
-2 8 -13 18 21 22 23 -24 0
-2 8 -13 18 21 22 -23 24 0
-2 8 -13 18 21 -22 23 24 0
-2 8 -13 18 21 -22 -23 -24 0
-2 8 -13 18 -21 22 23 24 0
-2 8 -13 18 -21 22 -23 -24 0
-2 8 -13 18 -21 -22 23 -24 0
-2 8 -13 18 -21 -22 -23 24 0
-2 8 -13 -18 21 22 23 24 0
-2 8 -13 -18 21 22 -23 -24 0
-2 8 -13 -18 21 -22 23 -24 0
-2 8 -13 -18 21 -22 -23 24 0
-2 8 -13 -18 -21 22 23 -24 0
-2 8 -13 -18 -21 22 -23 24 0
-2 8 -13 -18 -21 -22 23 24 0
-2 8 -13 -18 -21 -22 -23 -24 0
-2 -8 13 18 21 22 23 -24 0
-2 -8 13 18 21 22 -23 24 0
-2 -8 13 18 21 -22 23 24 0
-2 -8 13 18 21 -22 -23 -24 0
-2 -8 13 18 -21 22 23 24 0
-2 -8 13 18 -21 22 -23 -24 0
-2 -8 13 18 -21 -22 23 -24 0
-2 -8 13 18 -21 -22 -23 24 0
-2 -8 13 -18 21 22 23 24 0
-2 -8 13 -18 21 22 -23 -24 0
-2 -8 13 -18 21 -22 23 -24 0
-2 -8 13 -18 21 -22 -23 24 0
-2 -8 13 -18 -21 22 23 -24 0
-2 -8 13 -18 -21 22 -23 24 0
-2 -8 13 -18 -21 -22 23 24 0
-2 -8 13 -18 -21 -22 -23 -24 0
-2 -8 -13 18 21 22 23 24 0
-2 -8 -13 18 21 22 -23 -24 0
-2 -8 -13 18 21 -22 23 -24 0
-2 -8 -13 18 21 -22 -23 24 0
-2 -8 -13 18 -21 22 23 -24 0
-2 -8 -13 18 -21 22 -23 24 0
-2 -8 -13 18 -21 -22 23 24 0
-2 -8 -13 18 -21 -22 -23 -24 0
-2 -8 -13 -18 21 22 23 -24 0
-2 -8 -13 -18 21 22 -23 24 0
-2 -8 -13 -18 21 -22 23 24 0
-2 -8 -13 -18 21 -22 -23 -24 0
-2 -8 -13 -18 -21 22 23 24 0
-2 -8 -13 -18 -21 22 -23 -24 0
-2 -8 -13 -18 -21 -22 23 -24 0
-2 -8 -13 -18 -21 -22 -23 24 0
3 9 14 21 25 26 -27 0
3 9 14 21 25 -26 27 0
3 9 14 21 -25 26 27 0
3 9 14 21 -25 -26 -27 0
3 9 14 -21 25 26 27 0
3 9 14 -21 25 -26 -27 0
3 9 14 -21 -25 26 -27 0
3 9 14 -21 -25 -26 27 0
3 9 -14 21 25 26 27 0
3 9 -14 21 25 -26 -27 0
3 9 -14 21 -25 26 -27 0
3 9 -14 21 -25 -26 27 0
3 9 -14 -21 25 26 -27 0
3 9 -14 -21 25 -26 27 0
3 9 -14 -21 -25 26 27 0
3 9 -14 -21 -25 -26 -27 0
3 -9 14 21 25 26 27 0
3 -9 14 21 25 -26 -27 0
3 -9 14 21 -25 26 -27 0
3 -9 14 21 -25 -26 27 0
3 -9 14 -21 25 26 -27 0
3 -9 14 -21 25 -26 27 0
3 -9 14 -21 -25 26 27 0
3 -9 14 -21 -25 -26 -27 0
3 -9 -14 21 25 26 -27 0
3 -9 -14 21 25 -26 27 0
3 -9 -14 21 -25 26 27 0
3 -9 -14 21 -25 -26 -27 0
3 -9 -14 -21 25 26 27 0
3 -9 -14 -21 25 -26 -27 0
3 -9 -14 -21 -25 26 -27 0
3 -9 -14 -21 -25 -26 27 0
-3 9 14 21 25 26 27 0
-3 9 14 21 25 -26 -27 0
-3 9 14 21 -25 26 -27 0
-3 9 14 21 -25 -26 27 0
-3 9 14 -21 25 26 -27 0
-3 9 14 -21 25 -26 27 0
-3 9 14 -21 -25 26 27 0
-3 9 14 -21 -25 -26 -27 0
-3 9 -14 21 25 26 -27 0
-3 9 -14 21 25 -26 27 0
-3 9 -14 21 -25 26 27 0
-3 9 -14 21 -25 -26 -27 0
-3 9 -14 -21 25 26 27 0
-3 9 -14 -21 25 -26 -27 0
-3 9 -14 -21 -25 26 -27 0
-3 9 -14 -21 -25 -26 27 0
-3 -9 14 21 25 26 -27 0
-3 -9 14 21 25 -26 27 0
-3 -9 14 21 -25 26 27 0
-3 -9 14 21 -25 -26 -27 0
-3 -9 14 -21 25 26 27 0
-3 -9 14 -21 25 -26 -27 0
-3 -9 14 -21 -25 26 -27 0
-3 -9 14 -21 -25 -26 27 0
-3 -9 -14 21 25 26 27 0
-3 -9 -14 21 25 -26 -27 0
-3 -9 -14 21 -25 26 -27 0
-3 -9 -14 21 -25 -26 27 0
-3 -9 -14 -21 25 26 -27 0
-3 -9 -14 -21 25 -26 27 0
-3 -9 -14 -21 -25 26 27 0
-3 -9 -14 -21 -25 -26 -27 0
4 10 15 22 25 -28 0
4 10 15 22 -25 28 0
4 10 15 -22 25 28 0
4 10 15 -22 -25 -28 0
4 10 -15 22 25 28 0
4 10 -15 22 -25 -28 0
4 10 -15 -22 25 -28 0
4 10 -15 -22 -25 28 0
4 -10 15 22 25 28 0
4 -10 15 22 -25 -28 0
4 -10 15 -22 25 -28 0
4 -10 15 -22 -25 28 0
4 -10 -15 22 25 -28 0
4 -10 -15 22 -25 28 0
4 -10 -15 -22 25 28 0
4 -10 -15 -22 -25 -28 0
-4 10 15 22 25 28 0
-4 10 15 22 -25 -28 0
-4 10 15 -22 25 -28 0
-4 10 15 -22 -25 28 0
-4 10 -15 22 25 -28 0
-4 10 -15 22 -25 28 0
-4 10 -15 -22 25 28 0
-4 10 -15 -22 -25 -28 0
-4 -10 15 22 25 -28 0
-4 -10 15 22 -25 28 0
-4 -10 15 -22 25 28 0
-4 -10 15 -22 -25 -28 0
-4 -10 -15 22 25 28 0
-4 -10 -15 22 -25 -28 0
-4 -10 -15 -22 25 -28 0
-4 -10 -15 -22 -25 28 0
5 19 23 26 -29 0
5 19 23 -26 29 0
5 19 -23 26 29 0
5 19 -23 -26 -29 0
5 -19 23 26 29 0
5 -19 23 -26 -29 0
5 -19 -23 26 -29 0
5 -19 -23 -26 29 0
-5 19 23 26 29 0
-5 19 23 -26 -29 0
-5 19 -23 26 -29 0
-5 19 -23 -26 29 0
-5 -19 23 26 -29 0
-5 -19 23 -26 29 0
-5 -19 -23 26 29 0
-5 -19 -23 -26 -29 0
11 16 20 24 27 29 -30 0
11 16 20 24 27 -29 30 0
11 16 20 24 -27 29 30 0
11 16 20 24 -27 -29 -30 0
11 16 20 -24 27 29 30 0
11 16 20 -24 27 -29 -30 0
11 16 20 -24 -27 29 -30 0
11 16 20 -24 -27 -29 30 0
11 16 -20 24 27 29 30 0
11 16 -20 24 27 -29 -30 0
11 16 -20 24 -27 29 -30 0
11 16 -20 24 -27 -29 30 0
11 16 -20 -24 27 29 -30 0
11 16 -20 -24 27 -29 30 0
11 16 -20 -24 -27 29 30 0
11 16 -20 -24 -27 -29 -30 0
11 -16 20 24 27 29 30 0
11 -16 20 24 27 -29 -30 0
11 -16 20 24 -27 29 -30 0
11 -16 20 24 -27 -29 30 0
11 -16 20 -24 27 29 -30 0
11 -16 20 -24 27 -29 30 0
11 -16 20 -24 -27 29 30 0
11 -16 20 -24 -27 -29 -30 0
11 -16 -20 24 27 29 -30 0
11 -16 -20 24 27 -29 30 0
11 -16 -20 24 -27 29 30 0
11 -16 -20 24 -27 -29 -30 0
11 -16 -20 -24 27 29 30 0
11 -16 -20 -24 27 -29 -30 0
11 -16 -20 -24 -27 29 -30 0
11 -16 -20 -24 -27 -29 30 0
-11 16 20 24 27 29 30 0
-11 16 20 24 27 -29 -30 0
-11 16 20 24 -27 29 -30 0
-11 16 20 24 -27 -29 30 0
-11 16 20 -24 27 29 -30 0
-11 16 20 -24 27 -29 30 0
-11 16 20 -24 -27 29 30 0
-11 16 20 -24 -27 -29 -30 0
-11 16 -20 24 27 29 -30 0
-11 16 -20 24 27 -29 30 0
-11 16 -20 24 -27 29 30 0
-11 16 -20 24 -27 -29 -30 0
-11 16 -20 -24 27 29 30 0
-11 16 -20 -24 27 -29 -30 0
-11 16 -20 -24 -27 29 -30 0
-11 16 -20 -24 -27 -29 30 0
-11 -16 20 24 27 29 -30 0
-11 -16 20 24 27 -29 30 0
-11 -16 20 24 -27 29 30 0
-11 -16 20 24 -27 -29 -30 0
-11 -16 20 -24 27 29 30 0
-11 -16 20 -24 27 -29 -30 0
-11 -16 20 -24 -27 29 -30 0
-11 -16 20 -24 -27 -29 30 0
-11 -16 -20 24 27 29 30 0
-11 -16 -20 24 27 -29 -30 0
-11 -16 -20 24 -27 29 -30 0
-11 -16 -20 24 -27 -29 30 0
-11 -16 -20 -24 27 29 -30 0
-11 -16 -20 -24 27 -29 30 0
-11 -16 -20 -24 -27 29 30 0
-11 -16 -20 -24 -27 -29 -30 0
6 17 28 -30 0
6 17 -28 30 0
6 -17 28 30 0
6 -17 -28 -30 0
-6 17 28 30 0
-6 17 -28 -30 0
-6 -17 28 -30 0
-6 -17 -28 30 0